15 76
0 7
5 6
8 12
5 11
5 9
2 8
4 9
3 14
4 12
2 4
3 4
6 7
7 10
1 4
0 1
6 10
0 2
5 8
2 9
0 13
1 9
9 13
5 13
2 3
4 8
3 6
6 9
4 6
8 13
10 11
7 11
1 8
5 10
7 12
6 14
3 7
13 14
1 11
5 12
10 14
1 5
7 9
3 12
1 14
2 12
12 14
11 14
6 13
0 5
3 13
0 11
2 10
4 14
9 10
2 13
1 2
6 12
3 11
3 9
3 8
1 12
1 7
7 8
8 9
5 7
0 9
8 11
0 6
2 11
3 10
11 12
8 14
2 5
2 14
10 12
1 6
